75739
121,186,216,506,627,768,842,879,1108,1143,1225,1301,1361,1441,1573,1587,1876,1894,1904,1997,2062,2142,2334,2368,2472,2504,2509,2540,2669,2727,2769,2771,2790,2966,3116,3128,3209,3212,3217,3258,3338,3365,3397,3398,3401,3416,3496,3562,3638,3719,3948,3974,4044,4111,4180,4191,4386,4390,4406,4445,4487,4573,4673,4682,4721,4734,4745,4869,4907,4921,5000,5003,5008,5014,5038,5068,5089,5101,5120,5234,5274,5409,5472,5496,5527,5688,5737,5753,5757,5802,5911,5919,6096,6107,6347,6376,6559,6665,6732,6871,6907,6920,6979,7039,7068,7097,7166,7196,7200,7212,7332,7543,7549,7810,7849,7875,8039,8109,8167,8238,8284,8308,8628,8660,8675,8709,8719,8721,8774,8856,9152,9153,9164,9174,9253,9272,9346,9576,9761,9815,9975
